p edge 30 150
e 1 10
e 1 13
e 1 13
e 1 26
e 1 30
e 2 11
e 2 14
e 2 19
e 2 28
e 2 30
e 3 2
e 3 10
e 3 17
e 3 21
e 3 23
e 4 8
e 4 15
e 4 22
e 4 22
e 4 30
e 5 1
e 5 6
e 5 9
e 5 13
e 5 15
e 6 2
e 6 14
e 6 17
e 6 21
e 6 24
e 7 3
e 7 4
e 7 18
e 7 21
e 7 27
e 8 2
e 8 16
e 8 16
e 8 17
e 8 17
e 9 6
e 9 15
e 9 16
e 9 27
e 9 28
e 10 14
e 10 17
e 10 18
e 10 20
e 10 25
e 11 13
e 11 15
e 11 16
e 11 16
e 11 23
e 12 4
e 12 6
e 12 15
e 12 15
e 12 28
e 13 7
e 13 8
e 13 19
e 13 21
e 13 30
e 14 4
e 14 9
e 14 9
e 14 25
e 14 26
e 15 1
e 15 5
e 15 12
e 15 13
e 15 20
e 16 8
e 16 19
e 16 20
e 16 23
e 16 27
e 17 3
e 17 7
e 17 16
e 17 25
e 17 30
e 18 11
e 18 12
e 18 15
e 18 22
e 18 29
e 19 3
e 19 13
e 19 18
e 19 28
e 19 28
e 20 2
e 20 21
e 20 23
e 20 27
e 20 29
e 21 2
e 21 15
e 21 16
e 21 27
e 21 30
e 22 5
e 22 10
e 22 11
e 22 24
e 22 30
e 23 4
e 23 8
e 23 12
e 23 22
e 23 28
e 24 6
e 24 8
e 24 10
e 24 22
e 24 27
e 25 1
e 25 4
e 25 17
e 25 18
e 25 28
e 26 6
e 26 7
e 26 17
e 26 24
e 26 25
e 27 7
e 27 15
e 27 22
e 27 29
e 27 30
e 28 3
e 28 4
e 28 9
e 28 30
e 28 30
e 29 1
e 29 6
e 29 11
e 29 19
e 29 19
e 30 2
e 30 7
e 30 9
e 30 10
e 30 24
